c random formula
p cnf 10 30
9 3 0
-8 9 0
-6 3 0
-3 -7 0
10 6 0
8 1 0
-5 -2 0
10 1 0
7 -2 0
7 -3 0
5 -7 0
7 9 0
-5 -4 0
-4 5 0
-2 -9 0
-4 6 0
-9 10 0
4 8 0
6 -4 0
-10 8 0
9 -3 0
-2 1 0
1 -3 0
5 -8 0
-10 -9 0
10 -6 0
6 -8 0
-7 8 0
-5 10 0
-9 2 0
